Traveling Salesman Problem/TSP_generados/Aleatorio1621103462_14.tsp
NAME: Aleatorio1621103462_14.tsp
COMMENT: Randomly generated scenario
TYPE: TSP
DIMENSION: 14
EDGE_WEIGHT_TYPE: ATT
NODE_COORD_SECTION
1 25.42 37.42
2 32.59 40.26
3 29.33 24.94
4 44.57 8.07
5 27.16 26.62
6 38.22 31.51
7 14.58 18.38
8 14.35 27.02
9 18.12 26.93
10 36.11 11.49
11 16.72 24.31
12 38.56 45.64
13 18.5 11.44
14 24.75 45.59
