Traveling Salesman Problem/TSP_generados/Aleatorio1621103462_14.opt.tour
NAME: Aleatorio1621103462_14.opt.tour
COMMENT: Optimal solution for Aleatorio1621103462_14 (137.3822379896903)
TYPE: TOUR
DIMENSION: 14
TOUR_SECTION
1 14 2 12 6 4 10 13 7 11 8 9 5 3
-1
EOF
